============================[ Problem Statistics ]=============================|                                                                             ||  Number of variables:          4242                                         ||  Number of clauses:            9924                                         ||  Parse time:                   0.33 s                                       ||                                                                             |============================[ Search Statistics ]==============================| Conflicts |          ORIGINAL         |          LEARNT          | Progress ||           |    Vars  Clauses Literals |    Limit  Clauses Lit/Cl |          |===============================================================================|       100 |    1591     6129   498640 |     2247      100     53 | 62.501 % |===============================================================================restarts              : 2conflicts             : 186            (368 /sec)decisions             : 357            (0.00 % random) (707 /sec)propagations          : 10037          (19875 /sec)conflict literals     : 12854          (95.21 % deleted)CPU time              : 0.505 sSATISFIABLE